NAME : CMT3X.721398.tour
COMMENT : Cost = 0_721398
COMMENT : Found by LKH [Keld Helsgaun] Fri Sep 15 02:18:56 2017
TYPE : TOUR
DIMENSION : 105
TOUR_SECTION
1
77
78
4
80
79
35
36
72
66
67
21
33
91
64
65
50
37
48
47
9
46
18
85
6
61
84
19
90
103
95
96
60
93
98
88
14
59
54
104
29
13
81
69
30
25
55
5
56
26
40
68
24
57
76
42
23
75
73
74
22
105
27
41
3
58
16
44
43
15
45
39
87
17
62
86
92
101
38
99
94
100
97
7
102
28
70
2
51
34
82
10
52
31
71
11
63
12
20
49
83
8
89
32
53
-1
EOF
